NAME : X_18_seed_123_id_1
TYPE : CVRP
DIMENSION : 181
EDGE_WEIGHT_TYPE : EUC_2D
CAPACITY : 8
NODE_COORD_SECTION
1	493	406
2	591	43
3	271	604
4	484	672
5	606	421
6	291	128
7	349	601
8	278	657
9	374	589
10	614	608
11	364	562
12	246	590
13	214	643
14	602	42
15	616	330
16	797	423
17	481	680
18	291	671
19	630	78
20	644	47
21	246	107
22	577	563
23	251	657
24	250	198
25	339	713
26	339	624
27	399	650
28	344	640
29	427	654
30	257	591
31	466	365
32	264	819
33	308	167
34	646	467
35	414	576
36	483	653
37	369	564
38	461	682
39	562	526
40	576	84
41	541	779
42	535	497
43	416	787
44	572	29
45	558	50
46	231	131
47	502	633
48	418	529
49	564	709
50	514	489
51	191	654
52	719	432
53	587	30
54	612	67
55	999	299
56	244	159
57	302	71
58	419	639
59	702	546
60	595	40
61	695	379
62	503	672
63	665	183
64	624	52
65	586	71
66	768	195
67	246	692
68	505	354
69	396	621
70	244	183
71	435	712
72	602	451
73	643	413
74	559	380
75	206	634
76	532	386
77	354	641
78	613	149
79	354	130
80	613	68
81	507	641
82	496	72
83	503	659
84	409	548
85	558	362
86	340	498
87	592	24
88	497	562
89	446	588
90	105	50
91	149	129
92	582	9
93	672	452
94	643	408
95	637	434
96	339	569
97	499	663
98	600	453
99	634	510
100	438	54
101	634	428
102	597	402
103	447	686
104	525	736
105	381	559
106	458	743
107	535	361
108	291	591
109	292	468
110	436	219
111	613	476
112	343	558
113	326	567
114	521	703
115	480	641
116	202	588
117	579	377
118	373	603
119	661	621
120	304	663
121	678	446
122	539	835
123	228	523
124	504	768
125	230	725
126	316	147
127	637	93
128	422	713
129	478	719
130	258	666
131	246	727
132	553	474
133	369	635
134	384	113
135	483	733
136	396	725
137	533	31
138	286	173
139	591	390
140	609	415
141	417	548
142	255	628
143	587	53
144	289	17
145	600	300
146	216	613
147	340	539
148	345	413
149	296	103
150	316	169
151	291	618
152	602	41
153	311	155
154	197	110
155	357	585
156	531	573
157	590	82
158	354	616
159	200	127
160	578	57
161	602	82
162	615	466
163	349	624
164	328	629
165	326	676
166	313	637
167	676	377
168	201	208
169	487	729
170	322	85
171	155	641
172	256	623
173	387	620
174	563	516
175	346	542
176	193	601
177	589	495
178	390	523
179	556	484
180	412	601
181	367	591
DEMAND_SECTION
1	0
2	1
3	1
4	1
5	1
6	1
7	1
8	1
9	1
10	1
11	1
12	1
13	1
14	1
15	1
16	1
17	1
18	1
19	1
20	1
21	1
22	1
23	1
24	1
25	1
26	1
27	1
28	1
29	1
30	1
31	1
32	1
33	1
34	1
35	1
36	1
37	1
38	1
39	1
40	1
41	1
42	1
43	1
44	1
45	1
46	1
47	1
48	1
49	1
50	1
51	1
52	1
53	1
54	1
55	1
56	1
57	1
58	1
59	1
60	1
61	1
62	1
63	1
64	1
65	1
66	1
67	1
68	1
69	1
70	1
71	1
72	1
73	1
74	1
75	1
76	1
77	1
78	1
79	1
80	1
81	1
82	1
83	1
84	1
85	1
86	1
87	1
88	1
89	1
90	1
91	1
92	1
93	1
94	1
95	1
96	1
97	1
98	1
99	1
100	1
101	1
102	1
103	1
104	1
105	1
106	1
107	1
108	1
109	1
110	1
111	1
112	1
113	1
114	1
115	1
116	1
117	1
118	1
119	1
120	1
121	1
122	1
123	1
124	1
125	1
126	1
127	1
128	1
129	1
130	1
131	1
132	1
133	1
134	1
135	1
136	1
137	1
138	1
139	1
140	1
141	1
142	1
143	1
144	1
145	1
146	1
147	1
148	1
149	1
150	1
151	1
152	1
153	1
154	1
155	1
156	1
157	1
158	1
159	1
160	1
161	1
162	1
163	1
164	1
165	1
166	1
167	1
168	1
169	1
170	1
171	1
172	1
173	1
174	1
175	1
176	1
177	1
178	1
179	1
180	1
181	1
DEPOT_SECTION
1
-1
EOF
